AES/1_5_4/ssaes_r1-20_c5_rw1_e4_f0_k1-20_aes_min_box_aes_mc_bidirectional/ExperimentMinisat_r4_k17cnf_2011-10-29-202658/Result
WARNING: for repeatability, setting FPU to use double precision
============================[ Problem Statistics ]=============================
|                                                                             |
|  Number of variables:           412                                         |
|  Number of clauses:            1568                                         |
|  Parse time:                   0.00 s                                       |
|  Eliminated clauses:           0.00 Mb                                      |
|  Simplification time:          0.00 s                                       |
|                                                                             |
=============================[ Search Statistics ]==============================
| Conflicts  |          ORIGINAL         |          LEARNT          | Progress |
|            |    Vars  Clauses Literals |    Limit  Clauses Lit/Cl |          |
================================================================================
|        100 |     256     1128     3728 |      413      100     13 | 13.593 % |
|        250 |     256     1128     3728 |      454      250     16 | 13.593 % |
|        475 |     256     1128     3728 |      500      475     16 | 13.593 % |
|        812 |     256     1128     3728 |      550      510     14 | 13.593 % |
|       1318 |     256     1128     3728 |      605      372     10 | 13.593 % |
|       2077 |     256     1128     3728 |      666      419      9 | 13.593 % |
|       3216 |     256     1128     3728 |      732      445      7 | 13.593 % |
|       4924 |     256     1128     3728 |      805      539      8 | 13.593 % |
|       7486 |     256     1128     3728 |      886      458      6 | 13.593 % |
|      11330 |     256     1128     3728 |      975      964      9 | 13.593 % |
|      17096 |     256     1128     3728 |     1072      962      9 | 13.593 % |
===============================================================================
restarts              : 63
conflicts             : 18208          (82402 /sec)
decisions             : 20830          (0.00 % random) (94268 /sec)
propagations          : 932246         (4218957 /sec)
conflict literals     : 244158         (18.18 % deleted)
Memory used           : 8.00 MB
CPU time              : 0.220966 s

SATISFIABLE
